
  12    4
  10   10   10   10

   0   0   0   0   0   2 2 3 
   4  10  10  10  10   3 7 5 4 
   6  10  10  10  10   2 7 4 
   9  10  10  10  10   1 6 
   4  10  10  10  10   1 6 
   9  10  10  10  10   2 10 8 
   5  10  10  10  10   1 8 
   5  10  10  10  10   1 9 
   9  10  10  10  10   1 11 
   3  10  10  10  10   1 11 
   4  10  10  10  10   1 12
   0   0   0   0   0   0 
